MagicSquare/magic_square.lp
\ Model Magic_Square_3x3
\ LP format - for model browsing. Use MPS format to capture full model detail.
Minimize
  + Constant
Subject To
 cell_diff[0]: X[0,0,0] + X[0,1,0] + X[0,2,0] + X[1,0,0] + X[1,1,0]
   + X[1,2,0] + X[2,0,0] + X[2,1,0] + X[2,2,0] = 1
 cell_diff[1]: X[0,0,1] + X[0,1,1] + X[0,2,1] + X[1,0,1] + X[1,1,1]
   + X[1,2,1] + X[2,0,1] + X[2,1,1] + X[2,2,1] = 1
 cell_diff[2]: X[0,0,2] + X[0,1,2] + X[0,2,2] + X[1,0,2] + X[1,1,2]
   + X[1,2,2] + X[2,0,2] + X[2,1,2] + X[2,2,2] = 1
 cell_diff[3]: X[0,0,3] + X[0,1,3] + X[0,2,3] + X[1,0,3] + X[1,1,3]
   + X[1,2,3] + X[2,0,3] + X[2,1,3] + X[2,2,3] = 1
 cell_diff[4]: X[0,0,4] + X[0,1,4] + X[0,2,4] + X[1,0,4] + X[1,1,4]
   + X[1,2,4] + X[2,0,4] + X[2,1,4] + X[2,2,4] = 1
 cell_diff[5]: X[0,0,5] + X[0,1,5] + X[0,2,5] + X[1,0,5] + X[1,1,5]
   + X[1,2,5] + X[2,0,5] + X[2,1,5] + X[2,2,5] = 1
 cell_diff[6]: X[0,0,6] + X[0,1,6] + X[0,2,6] + X[1,0,6] + X[1,1,6]
   + X[1,2,6] + X[2,0,6] + X[2,1,6] + X[2,2,6] = 1
 cell_diff[7]: X[0,0,7] + X[0,1,7] + X[0,2,7] + X[1,0,7] + X[1,1,7]
   + X[1,2,7] + X[2,0,7] + X[2,1,7] + X[2,2,7] = 1
 cell_diff[8]: X[0,0,8] + X[0,1,8] + X[0,2,8] + X[1,0,8] + X[1,1,8]
   + X[1,2,8] + X[2,0,8] + X[2,1,8] + X[2,2,8] = 1
 row_sum[0]: X[0,0,0] + 2 X[0,0,1] + 3 X[0,0,2] + 4 X[0,0,3] + 5 X[0,0,4]
   + 6 X[0,0,5] + 7 X[0,0,6] + 8 X[0,0,7] + 9 X[0,0,8] + X[0,1,0]
   + 2 X[0,1,1] + 3 X[0,1,2] + 4 X[0,1,3] + 5 X[0,1,4] + 6 X[0,1,5]
   + 7 X[0,1,6] + 8 X[0,1,7] + 9 X[0,1,8] + X[0,2,0] + 2 X[0,2,1]
   + 3 X[0,2,2] + 4 X[0,2,3] + 5 X[0,2,4] + 6 X[0,2,5] + 7 X[0,2,6]
   + 8 X[0,2,7] + 9 X[0,2,8] - S = 0
 row_sum[1]: X[1,0,0] + 2 X[1,0,1] + 3 X[1,0,2] + 4 X[1,0,3] + 5 X[1,0,4]
   + 6 X[1,0,5] + 7 X[1,0,6] + 8 X[1,0,7] + 9 X[1,0,8] + X[1,1,0]
   + 2 X[1,1,1] + 3 X[1,1,2] + 4 X[1,1,3] + 5 X[1,1,4] + 6 X[1,1,5]
   + 7 X[1,1,6] + 8 X[1,1,7] + 9 X[1,1,8] + X[1,2,0] + 2 X[1,2,1]
   + 3 X[1,2,2] + 4 X[1,2,3] + 5 X[1,2,4] + 6 X[1,2,5] + 7 X[1,2,6]
   + 8 X[1,2,7] + 9 X[1,2,8] - S = 0
 row_sum[2]: X[2,0,0] + 2 X[2,0,1] + 3 X[2,0,2] + 4 X[2,0,3] + 5 X[2,0,4]
   + 6 X[2,0,5] + 7 X[2,0,6] + 8 X[2,0,7] + 9 X[2,0,8] + X[2,1,0]
   + 2 X[2,1,1] + 3 X[2,1,2] + 4 X[2,1,3] + 5 X[2,1,4] + 6 X[2,1,5]
   + 7 X[2,1,6] + 8 X[2,1,7] + 9 X[2,1,8] + X[2,2,0] + 2 X[2,2,1]
   + 3 X[2,2,2] + 4 X[2,2,3] + 5 X[2,2,4] + 6 X[2,2,5] + 7 X[2,2,6]
   + 8 X[2,2,7] + 9 X[2,2,8] - S = 0
 col_sum[0]: X[0,0,0] + 2 X[0,0,1] + 3 X[0,0,2] + 4 X[0,0,3] + 5 X[0,0,4]
   + 6 X[0,0,5] + 7 X[0,0,6] + 8 X[0,0,7] + 9 X[0,0,8] + X[1,0,0]
   + 2 X[1,0,1] + 3 X[1,0,2] + 4 X[1,0,3] + 5 X[1,0,4] + 6 X[1,0,5]
   + 7 X[1,0,6] + 8 X[1,0,7] + 9 X[1,0,8] + X[2,0,0] + 2 X[2,0,1]
   + 3 X[2,0,2] + 4 X[2,0,3] + 5 X[2,0,4] + 6 X[2,0,5] + 7 X[2,0,6]
   + 8 X[2,0,7] + 9 X[2,0,8] - S = 0
 col_sum[1]: X[0,1,0] + 2 X[0,1,1] + 3 X[0,1,2] + 4 X[0,1,3] + 5 X[0,1,4]
   + 6 X[0,1,5] + 7 X[0,1,6] + 8 X[0,1,7] + 9 X[0,1,8] + X[1,1,0]
   + 2 X[1,1,1] + 3 X[1,1,2] + 4 X[1,1,3] + 5 X[1,1,4] + 6 X[1,1,5]
   + 7 X[1,1,6] + 8 X[1,1,7] + 9 X[1,1,8] + X[2,1,0] + 2 X[2,1,1]
   + 3 X[2,1,2] + 4 X[2,1,3] + 5 X[2,1,4] + 6 X[2,1,5] + 7 X[2,1,6]
   + 8 X[2,1,7] + 9 X[2,1,8] - S = 0
 col_sum[2]: X[0,2,0] + 2 X[0,2,1] + 3 X[0,2,2] + 4 X[0,2,3] + 5 X[0,2,4]
   + 6 X[0,2,5] + 7 X[0,2,6] + 8 X[0,2,7] + 9 X[0,2,8] + X[1,2,0]
   + 2 X[1,2,1] + 3 X[1,2,2] + 4 X[1,2,3] + 5 X[1,2,4] + 6 X[1,2,5]
   + 7 X[1,2,6] + 8 X[1,2,7] + 9 X[1,2,8] + X[2,2,0] + 2 X[2,2,1]
   + 3 X[2,2,2] + 4 X[2,2,3] + 5 X[2,2,4] + 6 X[2,2,5] + 7 X[2,2,6]
   + 8 X[2,2,7] + 9 X[2,2,8] - S = 0
 diag_sum: X[0,0,0] + 2 X[0,0,1] + 3 X[0,0,2] + 4 X[0,0,3] + 5 X[0,0,4]
   + 6 X[0,0,5] + 7 X[0,0,6] + 8 X[0,0,7] + 9 X[0,0,8] + X[1,1,0]
   + 2 X[1,1,1] + 3 X[1,1,2] + 4 X[1,1,3] + 5 X[1,1,4] + 6 X[1,1,5]
   + 7 X[1,1,6] + 8 X[1,1,7] + 9 X[1,1,8] + X[2,2,0] + 2 X[2,2,1]
   + 3 X[2,2,2] + 4 X[2,2,3] + 5 X[2,2,4] + 6 X[2,2,5] + 7 X[2,2,6]
   + 8 X[2,2,7] + 9 X[2,2,8] - S = 0
 anti_diag_sum: X[0,2,0] + 2 X[0,2,1] + 3 X[0,2,2] + 4 X[0,2,3]
   + 5 X[0,2,4] + 6 X[0,2,5] + 7 X[0,2,6] + 8 X[0,2,7] + 9 X[0,2,8]
   + X[1,1,0] + 2 X[1,1,1] + 3 X[1,1,2] + 4 X[1,1,3] + 5 X[1,1,4]
   + 6 X[1,1,5] + 7 X[1,1,6] + 8 X[1,1,7] + 9 X[1,1,8] + X[2,0,0]
   + 2 X[2,0,1] + 3 X[2,0,2] + 4 X[2,0,3] + 5 X[2,0,4] + 6 X[2,0,5]
   + 7 X[2,0,6] + 8 X[2,0,7] + 9 X[2,0,8] - S = 0
Bounds
 Constant = 1
Binaries
 X[0,0,0] X[0,0,1] X[0,0,2] X[0,0,3] X[0,0,4] X[0,0,5] X[0,0,6] X[0,0,7]
 X[0,0,8] X[0,1,0] X[0,1,1] X[0,1,2] X[0,1,3] X[0,1,4] X[0,1,5] X[0,1,6]
 X[0,1,7] X[0,1,8] X[0,2,0] X[0,2,1] X[0,2,2] X[0,2,3] X[0,2,4] X[0,2,5]
 X[0,2,6] X[0,2,7] X[0,2,8] X[1,0,0] X[1,0,1] X[1,0,2] X[1,0,3] X[1,0,4]
 X[1,0,5] X[1,0,6] X[1,0,7] X[1,0,8] X[1,1,0] X[1,1,1] X[1,1,2] X[1,1,3]
 X[1,1,4] X[1,1,5] X[1,1,6] X[1,1,7] X[1,1,8] X[1,2,0] X[1,2,1] X[1,2,2]
 X[1,2,3] X[1,2,4] X[1,2,5] X[1,2,6] X[1,2,7] X[1,2,8] X[2,0,0] X[2,0,1]
 X[2,0,2] X[2,0,3] X[2,0,4] X[2,0,5] X[2,0,6] X[2,0,7] X[2,0,8] X[2,1,0]
 X[2,1,1] X[2,1,2] X[2,1,3] X[2,1,4] X[2,1,5] X[2,1,6] X[2,1,7] X[2,1,8]
 X[2,2,0] X[2,2,1] X[2,2,2] X[2,2,3] X[2,2,4] X[2,2,5] X[2,2,6] X[2,2,7]
 X[2,2,8]
Generals
 S
End
