MagicSquare/magic_square.sol
# Solution for model Magic_Square_3x3
# Objective value = 1
X[0,0,0] 0
X[0,0,1] 0
X[0,0,2] 0
X[0,0,3] 0
X[0,0,4] 0
X[0,0,5] 1
X[0,0,6] 0
X[0,0,7] 0
X[0,0,8] 0
X[0,1,0] 0
X[0,1,1] 0
X[0,1,2] 0
X[0,1,3] 0
X[0,1,4] 0
X[0,1,5] 0
X[0,1,6] 0
X[0,1,7] 1
X[0,1,8] 0
X[0,2,0] 1
X[0,2,1] 0
X[0,2,2] 0
X[0,2,3] 0
X[0,2,4] 0
X[0,2,5] 0
X[0,2,6] 0
X[0,2,7] 0
X[0,2,8] 0
X[1,0,0] 0
X[1,0,1] 0
X[1,0,2] 0
X[1,0,3] 0
X[1,0,4] 0
X[1,0,5] 0
X[1,0,6] 0
X[1,0,7] 0
X[1,0,8] 0
X[1,1,0] 0
X[1,1,1] 0
X[1,1,2] 0
X[1,1,3] 0
X[1,1,4] 1
X[1,1,5] 0
X[1,1,6] 0
X[1,1,7] 0
X[1,1,8] 0
X[1,2,0] 0
X[1,2,1] 0
X[1,2,2] 1
X[1,2,3] 0
X[1,2,4] 0
X[1,2,5] 0
X[1,2,6] 1
X[1,2,7] 0
X[1,2,8] 0
X[2,0,0] 0
X[2,0,1] 0
X[2,0,2] 0
X[2,0,3] 0
X[2,0,4] 0
X[2,0,5] 0
X[2,0,6] 0
X[2,0,7] 0
X[2,0,8] 1
X[2,1,0] 0
X[2,1,1] 1
X[2,1,2] 0
X[2,1,3] 0
X[2,1,4] 0
X[2,1,5] 0
X[2,1,6] 0
X[2,1,7] 0
X[2,1,8] 0
X[2,2,0] 0
X[2,2,1] 0
X[2,2,2] 0
X[2,2,3] 1
X[2,2,4] 0
X[2,2,5] 0
X[2,2,6] 0
X[2,2,7] 0
X[2,2,8] 0
S 15
